FILENAME:   /home/mcs001/s132664/testsets/IP/miplib2017/neos-3759587-noosa.mps.gz
SETTINGS:   settings_isopr_ostrowskidynamicbranching_avoidsubtreenodes
TIMELIMIT:  7200
OUTPUTNAME: final_miplib_symretope_if_extended_generating_set_cpx_v802__settings_isopr_ostrowskidynamicbranching_avoidsubtreenodes__0__
BINNAME:    bin/symmetries.linux.x86_64.gnu.opt.cpx
BASENAME:   neos-3759587-noosa.mps.gz
SEED:       0
@01 /home/mcs001/s132664/testsets/IP/miplib2017/neos-3759587-noosa.mps.gz ===========
@02 neos-3759587-noosa.mps.gz
@03 1686574009
SCIP version 8.0.2 [precision: 8 byte] [memory: block] [mode: optimized] [LP solver: CPLEX 20.1.0.0] [GitHash: 5f0473c]
Copyright (C) 2002-2022 Konrad-Zuse-Zentrum fuer Informationstechnik Berlin (ZIB)

Symmetry handling routines - (c) Marc Pfetsch, Thomas Rehn, Christopher Hojny.
[GitHash: a1587cb]


Turned off presolver <gateextraction>.
reading parameter file <../settings/settings_isopr_ostrowskidynamicbranching_avoidsubtreenodes.set> ...

Changed settings:
limits/time = 7200
limits/restarts = 0
constraints/orbitope/sepafreq = -1
constraints/orbitope/propfreq = 1
presolving/gateextraction/maxrounds = 0
propagating/isoprune/avoidsubtreenodes = TRUE
useisoprune = TRUE


solving problem ...

original problem has 27029 variables (4289 bin, 0 int, 0 impl, 22740 cont) and 72104 constraints
presolving:
(round 1, exhaustive) 0 del vars, 0 del conss, 0 add conss, 0 chg bounds, 12 chg sides, 784 chg coeffs, 46032 upgd conss, 0 impls, 348 clqs
   (10.2s) probing: 1000/4289 (23.3%) - 0 fixings, 20 aggregations, 833374 implications, 0 bound changes
   (13.3s) probing: 1490/4289 (34.7%) - 0 fixings, 20 aggregations, 1067477 implications, 0 bound changes
   (13.3s) probing aborted: 1000/1000 successive useless probings
Required symmetry:			(1 bin, 0 int, 0 cont); (fixed: 0 bin, 1 int, 0 cont)
Time for symmetry detection:		0.70 	(matrix graph, 178015 nodes, 636386 edges)
Number of generators:			8 	(max: 1500)
Order of symmetry group:		864
Log10 of symmetry group order:		2.9
Number of vars moved by some symmetry:	12922
Total time for symmetry detection:	0.72

Turned off presolver <domcol>.
Turned off presolver <components>.

presolving (2 rounds: 2 fast, 2 medium, 2 exhaustive):
 20 deleted vars, 4 deleted constraints, 20 added constraints, 0 tightened bounds, 0 added holes, 12 changed sides, 792 changed coefficients
 1079583 implications, 33682 cliques
presolved problem has 27009 variables (4269 bin, 0 int, 0 impl, 22740 cont) and 72121 constraints
  45480 constraints of type <varbound>
     48 constraints of type <knapsack>
    348 constraints of type <setppc>
  26072 constraints of type <linear>
    172 constraints of type <logicor>
      1 constraints of type <symmetries>
Presolving Time: 13.88

 time | node  | left  |LP iter|LP it/n|mem/heur|mdpt |frac |vars |cons |cols |rows |cuts |confs|strbr|  dualbound   | primalbound  |  gap   
 15.4s|     1 |     0 |   750 |     - |   446M |   0 |  36 |  27k|  72k|  27k|  72k|   0 |  39 |   0 | 4.833447e+01 |      --      |    Inf 
 19.7s|     1 |     2 |  1704 |     - |   464M |   0 |  36 |  27k|  72k|  27k|  72k|   0 |  40 |  31 | 4.833447e+01 |      --      |    Inf 
*29.9s|    24 |     0 |  1735 |   1.3 |    LP  |  23 |   - |  27k|  72k|  27k|  72k|   0 |  40 |  31 | 4.833447e+01 | 4.833447e+01 |   0.00%

SCIP Status        : problem is solved [optimal solution found]
Solving Time (sec) : 29.98
Solving Nodes      : 24
Primal Bound       : +4.83344677694000e+01 (1 solutions)
Dual Bound         : +4.83344677694000e+01
Gap                : 0.00 %

Number of variables fixed to 0 by isomorphism pruning:	   251
Number of variables fixed to 1 by isomorphism pruning:	     0
@04 1686574040
